instances/p2/p2_6_8-1.dzn
Alphabet = {A,C,G,T};
ns = 6;
nc = 6;
neighbours = [| I(G),I(T),Null,Null,Null,Null | I(C),I(C),I(G),I(A),I(C),Null | I(C),I(T),Null,Null,Null,Null | I(A),I(G),I(T),I(C),I(A),I(C) | I(G),I(C),I(T),I(C),I(G),I(G) | I(C),I(T),I(G),I(G),Null,Null |];
